c description: Random 3-CNF over 19 variables and 81 clauses
c generator: CNFgen (0.9.2)
c copyright: (C) 2012-2022 Massimo Lauria <massimo.lauria@uniroma1.it>
c url: https://massimolauria.net/cnfgen
c command line: cnfgen --output CNF_4.28/19_bit_81_520.cnf randkcnf 3 19 81
c
p cnf 19 81
-14 16 19 0
1 4 11 0
6 7 -11 0
-6 17 -19 0
-3 -10 -13 0
1 4 7 0
2 16 -19 0
-3 -4 -12 0
-9 11 -18 0
5 6 -18 0
-4 8 9 0
4 9 -14 0
1 -3 -17 0
-8 -10 12 0
5 6 18 0
1 -12 -13 0
-5 -13 15 0
1 -10 12 0
-2 14 18 0
-4 9 -13 0
2 -6 8 0
-1 3 19 0
14 -15 18 0
2 -12 -14 0
-6 -10 16 0
1 16 -17 0
1 -11 -13 0
-4 8 -14 0
-12 14 17 0
-2 4 13 0
-4 -7 18 0
-4 7 -11 0
6 -11 12 0
-2 6 -10 0
-2 -11 16 0
-10 12 -16 0
5 -8 -18 0
-10 -15 -16 0
3 7 13 0
-3 -11 -18 0
6 -8 -10 0
8 -9 -13 0
-4 9 11 0
7 -11 18 0
-1 4 -15 0
-2 -3 19 0
7 -12 -13 0
2 -11 -15 0
9 17 19 0
-1 -11 -18 0
16 -17 -19 0
-3 -5 18 0
2 6 7 0
2 -4 12 0
-16 -17 -18 0
-8 -17 -18 0
4 -13 19 0
5 -14 -19 0
-6 -16 -18 0
-2 -7 -13 0
5 -10 13 0
1 5 -9 0
-1 -8 9 0
3 9 15 0
-3 5 -15 0
1 2 -17 0
-7 9 16 0
2 -11 -14 0
10 -16 17 0
13 15 -18 0
2 11 16 0
-7 16 17 0
1 7 18 0
6 9 -18 0
-5 -12 14 0
-2 -15 -18 0
-4 -7 -9 0
11 -13 -14 0
3 15 17 0
5 10 14 0
-3 -7 -16 0
